lib/ltl-model-counter/result/numofmodels-k3.cnf
p cnf 62 81
62 0
-62 43 0
-62 61 0
-43 38 0
-43 42 0
-38 35 0
-38 37 0
-35 13 0
-35 34 0
-13 -1 12 0
-12 4 0
-12 11 0
-4 -2 3 0
-4 2 -3 0
-11 7 0
-11 10 0
-7 -5 6 0
-7 5 -6 0
-10 -8 9 0
-10 8 -9 0
-34 23 0
-34 33 0
-23 -14 22 0
-22 16 0
-22 21 0
-16 -15 3 0
-16 15 -3 0
-21 18 0
-21 20 0
-18 -17 6 0
-18 17 -6 0
-20 -19 9 0
-20 19 -9 0
-33 -24 32 0
-32 26 0
-32 31 0
-26 -25 3 0
-26 25 -3 0
-31 28 0
-31 30 0
-28 -27 6 0
-28 27 -6 0
-30 -29 9 0
-30 29 -9 0
-37 1 36 0
-36 14 24 0
-42 40 0
-42 41 0
-40 -39 -1 0
-14 24 39 0
14 -24 39 0
-14 -24 39 0
-41 -24 -14 0
-61 60 0
-61 27 0
-60 29 59 0
-59 25 0
-59 58 0
-58 19 57 0
-57 15 0
-57 56 0
-56 8 55 0
-55 2 0
-55 54 0
-54 44 53 0
-44 1 0
-44 8 0
-53 47 52 0
-47 14 0
-47 46 0
-46 19 45 0
-45 15 0
-45 8 0
-52 24 0
-52 51 0
-51 29 50 0
-50 25 0
-50 49 0
-49 19 48 0
-48 15 0
-48 8 0
