lib/ltl-model-counter/result/numofmodels-k3.sat
(((((l2)->(((p02)=(p03))&(((p12)=(p13))&((p22)=(p23)))))&(((l1)->(((p01)=(p03))&(((p11)=(p13))&((p21)=(p23)))))&((l0)->(((p00)=(p03))&(((p10)=(p13))&((p20)=(p23)))))))&((l2)|((l1)|(l0))))&((((l1)|(l0))->(!l2))&((l0)->(!l1))))&(((p20)|((p00)&((p21)|((p01)&((p22)|((p02)&(((l2)&(p22))|(((l1)&((p21)|((p01)&(p22))))|((l0)&((p20)|((p00)&((p21)|((p01)&(p22))))))))))))))&(p10))